10 20 
            0 1 10
            0 2 1039 
            0 4 10 
            0 8 736 
            1 3 2789 
            1 6 10 
            1 7 1449 
            2 3 2728 
            2 5 10 
            2 7 1371 
            2 8 10 
            3 4 20 
            3 5 10 
            3 6 1157 
            3 7 1029 
            3 8 980 
            5 7 1581 
            6 7 10 
	    7 9 10
            8 9	10	


